c Generated map
c Size: 8 * 8, weights in range: 1 to 10, walls: True, with ratio 0.1
c dim 5 of 10
c
p sp 64 90
c graph contains 64 nodes and 90 arcs
c
a 1 9 1
a 9 1 1
a 1 2 8
a 2 1 8
a 2 3 4
a 3 2 4
a 3 11 9
a 11 3 9
a 3 4 3
a 4 3 3
a 4 5 3
a 5 4 3
a 5 13 5
a 13 5 5
a 5 6 10
a 6 5 10
a 6 14 6
a 14 6 6
a 6 7 1
a 7 6 1
a 7 15 10
a 15 7 10
a 7 8 2
a 8 7 2
a 8 16 4
a 16 8 4
a 9 17 2
a 17 9 2
a 11 19 1
a 19 11 1
a 13 21 3
a 21 13 3
a 13 14 6
a 14 13 6
a 14 22 8
a 22 14 8
a 14 15 2
a 15 14 2
a 15 23 6
a 23 15 6
a 15 16 3
a 16 15 3
a 16 24 4
a 24 16 4
a 17 25 1
a 25 17 1
a 17 18 8
a 18 17 8
a 18 26 9
a 26 18 9
a 18 19 4
a 19 18 4
a 19 27 9
a 27 19 9
a 21 29 10
a 29 21 10
a 21 22 9
a 22 21 9
a 22 30 3
a 30 22 3
a 22 23 1
a 23 22 1
a 23 31 6
a 31 23 6
a 23 24 5
a 24 23 5
a 24 32 9
a 32 24 9
a 25 33 5
a 33 25 5
a 25 26 5
a 26 25 5
a 26 34 2
a 34 26 2
a 26 27 1
a 27 26 1
a 27 28 3
a 28 27 3
a 28 36 4
a 36 28 4
a 28 29 5
a 29 28 5
a 29 37 6
a 37 29 6
a 29 30 7
a 30 29 7
a 30 38 7
a 38 30 7
a 30 31 5
a 31 30 5
a 31 39 9
a 39 31 9
a 31 32 8
a 32 31 8
a 33 41 1
a 41 33 1
a 33 34 10
a 34 33 10
a 34 42 8
a 42 34 8
a 36 44 10
a 44 36 10
a 36 37 1
a 37 36 1
a 37 45 4
a 45 37 4
a 37 38 2
a 38 37 2
a 38 46 9
a 46 38 9
a 38 39 9
a 39 38 9
a 39 47 10
a 47 39 10
a 41 49 10
a 49 41 10
a 41 42 8
a 42 41 8
a 42 43 3
a 43 42 3
a 43 51 6
a 51 43 6
a 43 44 9
a 44 43 9
a 44 52 5
a 52 44 5
a 44 45 9
a 45 44 9
a 45 53 7
a 53 45 7
a 45 46 6
a 46 45 6
a 46 54 6
a 54 46 6
a 46 47 6
a 47 46 6
a 47 55 3
a 55 47 3
a 47 48 1
a 48 47 1
a 48 56 5
a 56 48 5
a 49 57 2
a 57 49 2
a 51 59 8
a 59 51 8
a 51 52 4
a 52 51 4
a 52 60 5
a 60 52 5
a 52 53 3
a 53 52 3
a 53 61 3
a 61 53 3
a 53 54 7
a 54 53 7
a 54 62 9
a 62 54 9
a 54 55 1
a 55 54 1
a 55 63 4
a 63 55 4
a 55 56 9
a 56 55 9
a 56 64 2
a 64 56 2
a 57 58 1
a 58 57 1
a 58 59 10
a 59 58 10
a 59 60 8
a 60 59 8
a 60 61 1
a 61 60 1
a 61 62 5
a 62 61 5
a 62 63 5
a 63 62 5
a 63 64 3
a 64 63 3
